20170915 69 0 0 0
20170622 38 0 0 0
20160921 21 0 0 0
20160608 24 0 0 0
20150918 62 0 0 0
20150709 96 0 0 0
20140919 167 0 0 0
20140605 157 0 0 0
20130912 161 0 0 0
20130606 131 0 0 0
20120918 152 0 0 0
20120607 164 0 0 0
20110915 162 0 0 0
20110601 183 0 0 0
20100916 160 0 0 0
20100603 130 0 0 0
20090917 124 0 0 0
20090601 149 0 0 0
20080919 131 0 0 0
20080529 157 0 0 0
